
Note: the module "julia" cannot be unloaded because it was not loaded.

2023/11/29
gurobi is now 11.0.0
previous version was 10.0.2
solving instance uflp nldep gunluk ../../../../../instances/uflp/gunluk/gunluk-40-80-1.txt square
The latest version of Julia in the `1.10` channel is 1.10.6+0.x64.linux.gnu. You currently have `1.10.5+0.x64.linux.gnu` installed. Run:

  juliaup update

in your terminal shell to install Julia 1.10.6+0.x64.linux.gnu and update the `1.10` channel to that version.
presolving:
(round 1, fast)       80 del vars, 3240 del conss, 0 add conss, 40 chg bounds, 0 chg sides, 0 chg coeffs, 0 upgd conss, 0 impls, 0 clqs
   (4.6s) symmetry computation started: requiring (bin +, int +, cont +), (fixed: bin -, int -, cont -)
   (7.3s) no symmetry present (symcode time: 1.96)
presolving (2 rounds: 2 fast, 1 medium, 1 exhaustive):
 80 deleted vars, 3240 deleted constraints, 0 added constraints, 40 tightened bounds, 0 added holes, 0 changed sides, 0 changed coefficients
 0 implications, 0 cliques
presolved problem has 3240 variables (0 bin, 0 int, 0 impl, 3240 cont) and 120 constraints
     80 constraints of type <linear>
     40 constraints of type <nonlinear>
Presolving Time: 7.48

 time | node  | left  |LP iter|LP it/n|mem/heur|mdpt |vars |cons |rows |cuts |sepa|confs|strbr|  dualbound   | primalbound  |  gap   | compl. 
  9.0s|     1 |     0 |    83 |     - |   444M |   0 |3280 | 120 | 280 |   0 |  0 |   0 |   0 | 3.303169e+02 |      --      |    Inf | unknown
L19.0s|     1 |     0 |    83 |     - |undercov|   0 |3280 | 120 | 280 |   0 |  0 |   0 |   0 | 3.303169e+02 | 3.322723e+02 |   0.59%| unknown
L44.1s|     1 |     0 |    83 |     - |undercov|   0 |3280 | 120 | 280 |   0 |  0 |   0 |   0 | 3.303169e+02 | 3.322530e+02 |   0.59%| unknown
 66.3s|     1 |     0 |   124 |     - |   467M |   0 |3280 | 120 | 320 |  40 |  1 |   0 |   0 | 3.322236e+02 | 3.322530e+02 |   0.01%| unknown
 66.3s|     1 |     0 |   124 |     - |   467M |   0 |3280 | 120 | 320 |  40 |  1 |   0 |   0 | 3.322236e+02 | 3.322530e+02 |   0.01%| unknown
 66.4s|     1 |     0 |   126 |     - |   467M |   0 |3280 | 120 | 322 |  42 |  2 |   0 |   0 | 3.322479e+02 | 3.322530e+02 |   0.00%| unknown
 66.4s|     1 |     0 |   127 |     - |   467M |   0 |3280 | 120 | 324 |  44 |  3 |   0 |   0 | 3.322517e+02 | 3.322530e+02 |   0.00%| unknown
 66.5s|     1 |     0 |   129 |     - |   467M |   0 |3280 | 120 | 326 |  46 |  4 |   0 |   0 | 3.322530e+02 | 3.322530e+02 |   0.00%| unknown
 66.5s|     1 |     0 |   129 |     - |   467M |   0 |3280 | 120 | 326 |  46 |  4 |   0 |   0 | 3.322530e+02 | 3.322530e+02 |   0.00%| unknown

SCIP Status        : problem is solved [optimal solution found]
Solving Time (sec) : 66.48
Solving Nodes      : 1
Primal Bound       : +3.32253034896174e+02 (2 solutions)
Dual Bound         : +3.32253034896174e+02
Gap                : 0.00 %
solution violates original bounds of variable <f[2]> [0,4521] solution value <-2.1929e-05>
best solution is not feasible in original problem
Generating Gunluk and Lee data file ../../../../../instances/uflp/gunluk/gunluk-40-80-1.txt
primal_bound = 332.2530348961745, dual_bound = 332.2530348961745, gap = 0.0, time = 69.16
